n=40;
demand=2;
horizon=40;
est=[26,30,29,36,15,13,25,14,15,11,22,17,15,0,27,6,37,9,0,33,35,1,20,31,20,38,18,33,39,36,7,16,16,28,38,11,27,36,32,26];
processing_time=[13,5,5,2,11,10,3,10,25,21,11,22,22,2,7,29,1,22,23,4,3,35,20,9,19,2,2,5,1,2,7,1,16,6,1,25,12,1,7,1];
lct=[39,37,36,38,29,25,40,37,40,35,38,40,40,36,34,36,39,40,40,37,40,36,40,40,40,40,36,38,40,38,20,37,38,40,40,37,40,38,40,29];
